200,161
269,107
321,46
317,142
609,458
584,476
611,503
742,791
491,780
773,691
755,634
655,419
663,463
657,389
487,265
427,152
586,219
694,380
639,364
644,169
450,-48
792,64
1036,350
994,507
918,443
738,388
721,486
898,-21
411,406
427,660
